5 5
2 98 0 76 1 56 3 58 4 91
0 50 3 25 1 12 4 97 2 73
3 65 1 56 0 50 4 87 2 28
4 3 0 38 1 64 2 54 3 36
0 44 1 44 4 69 3 93 2 53
-1
0 1 3 5
0 1 3 4 5
0 1 2 5
0 1 5
0 3 5
-2
116 328 504
73 129 293 372
69 184 377
3 300
195 308

436 4
20 5 16 1 12
21 11 7 17 2
0 18 9 14 24
10 6 23 3 19
15 22 8 13 4
